10 20
0 380 260 278 403 203 94 390 295 247
380 0 558 272 125 290 475 208 92 624
260 558 0 534 621 461 224 463 466 201
278 272 534 0 202 76 353 425 250 506
403 125 621 202 0 250 494 332 180 650
203 290 461 76 250 0 277 408 243 430
94 475 224 353 494 277 0 471 389 156
390 208 463 425 332 408 471 0 176 592
295 92 466 250 180 243 389 176 0 535
247 624 201 506 650 430 156 592 535 0
4 0 40
3 1 27
4 6 49
8 0 29
8 6 38
0 5 20
4 5 25
3 9 50
5 6 27
4 8 18
7 6 47
3 2 53
4 7 33
5 2 46
5 8 24
0 3 27
1 4 12
1 7 20
7 2 46
7 5 40
